SECTION Graph
Nodes 263
Edges 262

E 10 1002 1
E 10 1043 1
E 10 1105 1
E 22 1001 1
E 22 1052 1
E 22 1057 1
E 22 1128 1
E 22 1132 1
E 22 1156 1
E 22 1160 1
E 22 1189 1
E 64 1002 1
E 64 1049 1
E 64 1136 1
E 78 1002 1
E 78 1018 1
E 87 1001 1
E 87 1098 1
E 87 1101 1
E 112 1002 1
E 112 1083 1
E 114 1001 1
E 114 1015 1
E 114 1037 1
E 114 1045 1
E 114 1090 1
E 114 1159 1
E 114 1174 1
E 114 1183 1
E 166 1001 1
E 166 1004 1
E 166 1111 1
E 168 1001 1
E 168 1022 1
E 168 1121 1
E 168 1184 1
E 173 1002 1
E 173 1069 1
E 191 1002 1
E 191 1141 1
E 225 1001 1
E 225 1109 1
E 225 1134 1
E 225 1171 1
E 225 1194 1
E 268 1001 1
E 268 1035 1
E 268 1108 1
E 268 1125 1
E 268 1154 1
E 276 1001 1
E 276 1146 1
E 276 1195 1
E 297 1002 1
E 297 1095 1
E 298 1002 1
E 298 1032 1
E 305 1001 1
E 305 1143 1
E 305 1150 1
E 305 1177 1
E 310 1001 1
E 310 1013 1
E 310 1020 1
E 310 1097 1
E 310 1104 1
E 310 1172 1
E 319 1001 1
E 319 1026 1
E 319 1048 1
E 319 1080 1
E 319 1122 1
E 319 1168 1
E 319 1173 1
E 319 1190 1
E 319 1200 1
E 348 1002 1
E 348 1033 1
E 357 1002 1
E 357 1085 1
E 370 1002 1
E 370 1130 1
E 378 1001 1
E 378 1005 1
E 378 1007 1
E 378 1016 1
E 378 1053 1
E 378 1055 1
E 378 1068 1
E 378 1082 1
E 400 1001 1
E 400 1079 1
E 400 1149 1
E 400 1197 1
E 405 1001 1
E 405 1047 1
E 405 1050 1
E 405 1123 1
E 405 1165 1
E 405 1182 1
E 412 1001 1
E 412 1031 1
E 412 1060 1
E 412 1088 1
E 412 1166 1
E 412 1186 1
E 416 1002 1
E 416 1145 1
E 416 1164 1
E 418 1002 1
E 418 1158 1
E 454 1001 1
E 454 1029 1
E 454 1067 1
E 454 1107 1
E 483 1001 1
E 483 1040 1
E 483 1178 1
E 487 1001 1
E 487 1117 1
E 587 1001 1
E 587 1094 1
E 587 1102 1
E 587 1153 1
E 587 1187 1
E 609 1001 1
E 609 1008 1
E 609 1009 1
E 609 1175 1
E 609 1181 1
E 635 1001 1
E 635 1046 1
E 635 1076 1
E 635 1110 1
E 635 1114 1
E 652 1001 1
E 652 1036 1
E 652 1051 1
E 652 1135 1
E 652 1138 1
E 652 1198 1
E 672 1002 1
E 672 1030 1
E 674 1002 1
E 674 1065 1
E 684 1002 1
E 684 1162 1
E 695 1001 1
E 695 1093 1
E 695 1120 1
E 695 1191 1
E 695 1193 1
E 707 1002 1
E 707 1044 1
E 709 1001 1
E 709 1023 1
E 709 1024 1
E 709 1070 1
E 709 1077 1
E 709 1119 1
E 709 1152 1
E 755 1002 1
E 755 1074 1
E 761 1151 1
E 761 1200 1
E 763 1001 1
E 763 1028 1
E 763 1059 1
E 763 1081 1
E 763 1096 1
E 763 1099 1
E 763 1170 1
E 763 1176 1
E 763 1196 1
E 763 1199 1
E 772 1001 1
E 772 1006 1
E 772 1011 1
E 772 1012 1
E 772 1056 1
E 772 1072 1
E 772 1078 1
E 772 1086 1
E 772 1139 1
E 772 1142 1
E 772 1167 1
E 772 1188 1
E 774 1001 1
E 774 1027 1
E 774 1058 1
E 774 1084 1
E 774 1115 1
E 774 1116 1
E 774 1118 1
E 774 1179 1
E 775 1073 1
E 775 1200 1
E 781 1001 1
E 781 1002 1
E 781 1003 1
E 781 1061 1
E 781 1089 1
E 781 1091 1
E 781 1112 1
E 781 1133 1
E 781 1157 1
E 787 1001 1
E 787 1071 1
E 787 1129 1
E 798 1002 1
E 798 1092 1
E 798 1180 1
E 827 1001 1
E 827 1124 1
E 827 1131 1
E 827 1148 1
E 842 1001 1
E 842 1021 1
E 842 1054 1
E 842 1163 1
E 860 1001 1
E 860 1140 1
E 860 1155 1
E 877 1001 1
E 877 1064 1
E 877 1087 1
E 877 1103 1
E 877 1144 1
E 877 1161 1
E 908 1001 1
E 908 1063 1
E 908 1075 1
E 908 1127 1
E 908 1147 1
E 909 1001 1
E 909 1126 1
E 909 1169 1
E 937 1002 1
E 937 1042 1
E 945 1002 1
E 945 1062 1
E 956 1001 1
E 956 1025 1
E 956 1038 1
E 956 1066 1
E 956 1185 1
E 957 1001 1
E 957 1010 1
E 957 1034 1
E 957 1039 1
E 957 1041 1
E 957 1106 1
E 963 1001 1
E 963 1017 1
E 963 1113 1
E 965 1001 1
E 965 1019 1
E 968 1001 1
E 968 1014 1
E 968 1100 1
E 968 1137 1
E 968 1192 1
END
SECTION Terminals
T 1001
T 1002
T 1003
T 1004
T 1005
T 1006
T 1007
T 1008
T 1009
T 1010
T 1011
T 1012
T 1013
T 1014
T 1015
T 1016
T 1017
T 1018
T 1019
T 1020
T 1021
T 1022
T 1023
T 1024
T 1025
T 1026
T 1027
T 1028
T 1029
T 1030
T 1031
T 1032
T 1033
T 1034
T 1035
T 1036
T 1037
T 1038
T 1039
T 1040
T 1041
T 1042
T 1043
T 1044
T 1045
T 1046
T 1047
T 1048
T 1049
T 1050
T 1051
T 1052
T 1053
T 1054
T 1055
T 1056
T 1057
T 1058
T 1059
T 1060
T 1061
T 1062
T 1063
T 1064
T 1065
T 1066
T 1067
T 1068
T 1069
T 1070
T 1071
T 1072
T 1073
T 1074
T 1075
T 1076
T 1077
T 1078
T 1079
T 1080
T 1081
T 1082
T 1083
T 1084
T 1085
T 1086
T 1087
T 1088
T 1089
T 1090
T 1091
T 1092
T 1093
T 1094
T 1095
T 1096
T 1097
T 1098
T 1099
T 1100
T 1101
T 1102
T 1103
T 1104
T 1105
T 1106
T 1107
T 1108
T 1109
T 1110
T 1111
T 1112
T 1113
T 1114
T 1115
T 1116
T 1117
T 1118
T 1119
T 1120
T 1121
T 1122
T 1123
T 1124
T 1125
T 1126
T 1127
T 1128
T 1129
T 1130
T 1131
T 1132
T 1133
T 1134
T 1135
T 1136
T 1137
T 1138
T 1139
T 1140
T 1141
T 1142
T 1143
T 1144
T 1145
T 1146
T 1147
T 1148
T 1149
T 1150
T 1151
T 1152
T 1153
T 1154
T 1155
T 1156
T 1157
T 1158
T 1159
T 1160
T 1161
T 1162
T 1163
T 1164
T 1165
T 1166
T 1167
T 1168
T 1169
T 1170
T 1171
T 1172
T 1173
T 1174
T 1175
T 1176
T 1177
T 1178
T 1179
T 1180
T 1181
T 1182
T 1183
T 1184
T 1185
T 1186
T 1187
T 1188
T 1189
T 1190
T 1191
T 1192
T 1193
T 1194
T 1195
T 1196
T 1197
T 1198
T 1199
T 1200
END
SECTION Cost
262
END
